StudentsNr = 10;
InstructorsNr = 74;
DaysNr = 2;
SlotsPerDay = 40;
AvailabilitySlotsLenght = 10;
RoomNr = 1;
ProgrammNr = 2;
DegreeNr = 3;
RolesNr = 4;
CoursesNr = 6;
InstructorsProgramm = [{1}, {2}, {1}, {2}, {1}, {1, 2}, {1}, {1}, {2}, {1, 2}, {1, 2}, {1}, {1}, {2}, {1}, {2}, {1}, {2}, {1, 2}, {2}, {2}, {2}, {1}, {1}, {2}, {1}, {1}, {1}, {1}, {2}, {2}, {2}, {2}, {2}, {2}, {2}, {1}, {2}, {1, 2}, {1, 2}, {1}, {1, 2}, {1, 2}, {1, 2}, {2}, {1, 2}, {1, 2}, {1}, {1}, {2}, {1}, {2}, {1}, {1}, {2}, {1, 2}, {2}, {1, 2}, {1}, {2}, {1}, {1, 2}, {2}, {1}, {2}, {2}, {1}, {1, 2}, {1, 2}, {1}, {1}, {1, 2}, {2}, {1}];
InstructorRolesPerProgramm = [|{1, 6, 7, 11, 12, 15, 28, 29, 39, 42, 43, 44, 47, 49, 54, 56, 59, 61, 64, 69, 70, 72}, {7, 11, 13, 26, 29, 42, 43, 49, 53, 54, 70, 72}, {1, 6, 7, 10, 13, 23, 26, 39, 44, 48, 53, 58, 64, 70}, {1, 5, 6, 12, 15, 23, 26, 39, 43, 44, 46, 49, 51, 54, 58, 62, 64, 69}|{6, 9, 11, 20, 33, 34, 35, 39, 42, 43, 44, 47, 52, 55, 56, 57, 69, 72, 73}, {11, 20, 22, 31, 33, 34, 38, 42, 43, 45, 52, 57, 60, 63, 65, 66, 72}, {2, 6, 9, 10, 14, 20, 21, 31, 39, 44, 55, 58, 60}, {6, 22, 35, 38, 39, 43, 44, 46, 55, 58, 60, 62, 65, 66, 69, 73}|];
InstructorsAvailability = [|1, 1, 1, 1, 1, 1, 1, 1, |1, 1, 0, 0, 0, 0, 1, 1, |1, 1, 1, 1, 1, 1, 1, 1, |0, 0, 1, 1, 1, 1, 1, 1, |1, 1, 1, 1, 1, 1, 0, 1, |0, 1, 1, 1, 1, 1, 1, 1, |0, 0, 0, 0, 0, 0, 0, 0, |0, 0, 1, 1, 1, 0, 0, 0, |1, 1, 1, 1, 1, 0, 1, 1, |1, 1, 1, 1, 1, 0, 0, 0, |0, 1, 1, 1, 1, 1, 1, 1, |0, 1, 1, 1, 1, 1, 1, 1, |1, 1, 1, 1, 1, 1, 1, 1, |1, 0, 1, 1, 1, 1, 1, 1, |0, 0, 1, 1, 1, 1, 1, 1, |1, 0, 1, 1, 1, 1, 1, 1, |0, 0, 1, 1, 1, 1, 1, 1, |0, 1, 1, 1, 0, 0, 0, 1, |1, 1, 1, 1, 1, 1, 1, 0, |0, 1, 1, 1, 0, 1, 1, 1, |0, 1, 1, 1, 1, 1, 0, 1, |0, 0, 0, 1, 1, 1, 1, 1, |0, 0, 1, 1, 1, 1, 1, 1, |0, 0, 1, 1, 0, 0, 1, 1, |1, 1, 1, 1, 1, 1, 1, 0, |1, 1, 1, 1, 1, 1, 1, 0, |0, 1, 0, 0, 1, 1, 1, 1, |1, 1, 1, 1, 1, 1, 1, 1, |1, 0, 0, 0, 1, 1, 1, 1, |1, 1, 1, 1, 1, 1, 0, 1, |1, 1, 0, 1, 1, 1, 1, 0, |1, 1, 1, 1, 0, 1, 0, 0, |1, 1, 1, 1, 1, 1, 1, 1, |0, 0, 0, 1, 1, 1, 1, 1, |0, 1, 1, 1, 1, 1, 1, 1, |0, 0, 1, 1, 0, 1, 0, 0, |1, 1, 1, 1, 1, 1, 1, 1, |1, 1, 1, 1, 1, 1, 1, 1, |0, 1, 1, 1, 1, 1, 0, 1, |1, 1, 1, 1, 1, 1, 1, 1, |1, 0, 0, 1, 1, 1, 1, 1, |1, 1, 1, 0, 0, 1, 1, 1, |1, 1, 0, 1, 0, 1, 1, 1, |1, 1, 1, 1, 1, 0, 0, 1, |0, 1, 1, 0, 1, 1, 1, 1, |1, 1, 0, 1, 1, 1, 0, 1, |1, 1, 1, 0, 0, 0, 0, 0, |1, 1, 1, 1, 1, 1, 1, 0, |0, 0, 1, 1, 0, 1, 1, 1, |1, 1, 1, 1, 1, 1, 0, 1, |0, 1, 1, 1, 1, 1, 1, 0, |1, 0, 1, 0, 0, 0, 0, 0, |0, 0, 1, 1, 1, 1, 1, 1, |0, 1, 1, 1, 1, 1, 1, 1, |0, 1, 1, 1, 1, 1, 1, 1, |1, 0, 1, 1, 1, 1, 0, 1, |1, 1, 1, 1, 1, 1, 1, 1, |1, 1, 1, 1, 0, 1, 0, 1, |1, 1, 1, 1, 1, 1, 1, 1, |1, 0, 0, 1, 1, 1, 1, 1, |1, 0, 0, 1, 1, 1, 1, 1, |1, 0, 0, 0, 0, 1, 1, 1, |0, 0, 1, 1, 1, 1, 1, 1, |1, 1, 1, 1, 1, 1, 1, 1, |0, 1, 1, 1, 1, 1, 1, 1, |1, 0, 0, 1, 1, 1, 1, 1, |1, 1, 1, 1, 1, 1, 0, 0, |0, 0, 1, 1, 1, 1, 1, 1, |1, 1, 0, 0, 1, 1, 0, 1, |0, 0, 1, 1, 0, 1, 1, 1, |1, 1, 0, 0, 1, 0, 0, 1, |1, 1, 1, 1, 1, 1, 1, 1, |1, 0, 1, 1, 1, 1, 0, 0, |0, 1, 0, 1, 1, 1, 1, 1|];
StudentsProgramm = [1, 1, 1, 2, 1, 1, 2, 1, 2, 2];
StudentsDegree = [2, 3, 2, 1, 2, 3, 2, 2, 2, 1];
StudentsSupervisorId = [51, 7, 69, 32, 69, 19, 14, 54, 65, 62];
StudentsCourseIds = [{1, 2, 3, 5, 6}, {}, {2, 3, 4, 5, 6}, {1, 2, 3, 4, 5, 6}, {2, 3, 4, 5, 6}, {}, {1, 2, 3, 4, 5}, {1, 2, 3, 4, 6}, {1, 2, 3, 5, 6}, {1, 2, 3, 4, 5, 6}];
StudentsAvailability = [|0, 1, 1, 1, 0, 1, 1, 1, |1, 1, 1, 1, 0, 0, 0, 0, |0, 1, 1, 1, 0, 1, 1, 1, |0, 1, 1, 1, 1, 0, 1, 1, |0, 1, 1, 1, 1, 1, 1, 1, |1, 1, 1, 1, 1, 1, 1, 1, |0, 0, 0, 1, 1, 0, 1, 1, |1, 1, 1, 0, 0, 0, 0, 0, |0, 1, 1, 1, 1, 0, 1, 1, |1, 1, 1, 1, 1, 1, 1, 1|];
TheoryticalMinCard = [0, 0, 0, 0, 0, 1, 0, 0, 0, 0];
CoursesInstructorIds = [{1, 2, 4, 5, 6, 7, 8, 9, 10, 12, 15, 17, 20, 21, 22, 23, 25, 27, 29, 30, 31, 32, 34, 35, 36, 38, 39, 40, 43, 44, 49, 51, 52, 56, 57, 58, 59, 62, 65, 67, 71, 72, 74}, {14, 20, 25, 31, 37, 51, 65}, {2, 16, 17, 19, 20, 21, 22, 23, 26, 28, 32, 33, 35, 39, 42, 47, 51, 52, 54, 55, 56, 59, 60, 61, 62, 63, 66, 68, 70, 71, 73, 74}, {2, 3, 5, 6, 7, 9, 11, 12, 14, 15, 16, 17, 21, 22, 27, 29, 30, 32, 33, 34, 35, 36, 37, 39, 47, 48, 52, 53, 54, 60, 61, 63, 64, 65, 69, 74}, {7, 17, 30, 46, 48, 64, 65, 67, 69, 72}, {1, 3, 4, 7, 8, 10, 12, 13, 14, 15, 16, 17, 18, 19, 24, 26, 28, 30, 33, 34, 35, 38, 39, 41, 45, 48, 49, 50, 51, 52, 53, 54, 56, 57, 59, 60, 63, 64, 66, 67, 69, 72, 74}];
RolesDemands = [14, 7, 6, 10];
RolesContinuity = [1];
ExamLen = [1, 1, 1, 1, 1, 1, 1, 1, 1, 1];
LunchTsMinLen = 0;
LunchStarts = [20..28, 56..62];
SupervisorAvailable = 5;
OptimalLunchLenght = [3, 1];
OptimalStartTs = [0, 0];
OptimalFinishTs = [0, 40];
MinimizeRooms = 300;
RolesSoftContinuity = [|1, 2, 3, 4|1, 0, 4, 4|];
SameDegreeInRoom = 10;
Mergeability = 1;
